nEmpreses = 55;
nReunions = 125;
nTaules = 22;
nFrangesTotal = 22;
nFrangesMati = 12;

demanades = [|1, 38, 3,
|1, 50, 3,
|1, 54, 3,
|4, 1, 3,
|4, 2, 3,
|4, 5, 3,
|9, 1, 2,
|9, 3, 2,
|9, 4, 2,
|14, 2, 2,
|17, 26, 1,
|17, 29, 1,
|17, 36, 1,
|17, 37, 1,
|17, 45, 1,
|17, 46, 1,
|17, 55, 1,
|19, 48, 3,
|22, 25, 3,
|22, 52, 3,
|22, 54, 3,
|23, 30, 3,
|24, 2, 3,
|24, 5, 3,
|24, 6, 3,
|24, 20, 3,
|24, 21, 3,
|24, 26, 3,
|24, 45, 3,
|24, 54, 3,
|25, 3, 3,
|25, 4, 3,
|25, 24, 3,
|25, 41, 3,
|25, 44, 3,
|25, 48, 3,
|25, 52, 3,
|28, 3, 1,
|28, 6, 1,
|28, 12, 1,
|28, 19, 1,
|28, 23, 1,
|33, 26, 3,
|33, 29, 3,
|33, 31, 3,
|33, 46, 3,
|34, 2, 3,
|34, 23, 3,
|34, 24, 3,
|34, 43, 3,
|35, 5, 3,
|35, 17, 3,
|35, 23, 3,
|35, 28, 3,
|35, 42, 3,
|36, 19, 3,
|36, 20, 3,
|36, 21, 3,
|36, 22, 3,
|36, 24, 3,
|36, 27, 3,
|36, 28, 3,
|36, 33, 3,
|36, 34, 3,
|36, 35, 3,
|36, 38, 3,
|36, 39, 3,
|38, 25, 3,
|38, 27, 3,
|38, 39, 3,
|38, 42, 3,
|38, 53, 3,
|38, 54, 3,
|40, 2, 1,
|40, 22, 1,
|42, 25, 3,
|42, 31, 3,
|42, 33, 3,
|42, 54, 3,
|43, 1, 3,
|43, 4, 3,
|43, 17, 3,
|43, 30, 3,
|43, 50, 3,
|44, 1, 3,
|44, 4, 3,
|44, 28, 3,
|44, 34, 3,
|44, 37, 3,
|45, 11, 3,
|46, 6, 1,
|46, 26, 1,
|46, 28, 1,
|46, 29, 1,
|46, 32, 1,
|46, 36, 1,
|46, 41, 1,
|47, 20, 1,
|47, 22, 1,
|47, 27, 1,
|47, 38, 1,
|47, 39, 1,
|47, 49, 1,
|47, 52, 1,
|48, 4, 3,
|48, 17, 3,
|48, 23, 3,
|48, 34, 3,
|48, 38, 3,
|48, 44, 3,
|48, 46, 3,
|48, 55, 3,
|49, 1, 3,
|50, 28, 3,
|50, 47, 3,
|50, 49, 3,
|50, 51, 3,
|51, 27, 1,
|55, 23, 3,
|55, 29, 3,
|55, 32, 3,
|55, 33, 3,
|55, 44, 3,
|55, 46, 3,
|55, 52, 3,
|];

nReunionsEmpresa = [8, 5, 3, 8, 3, 3, 0, 0, 3, 0, 1, 1, 0, 1, 0, 0, 10, 0, 3, 3, 2, 6, 6, 11, 10, 4, 4, 10, 4, 2, 2, 2, 7, 7, 6, 14, 2, 10, 3, 2, 2, 6, 6, 8, 3, 11, 8, 10, 3, 6, 2, 4, 1, 5, 9, ];
empresesZero = 7;

fixat = [0,0,0,0,0,0,0,0,0,0,0,0,0,0,0,0,0,0,0,0,0,0,0,0,0,0,0,0,0,0,0,0,0,0,0,0,0,0,0,0,0,0,0,0,0,0,0,0,0,0,0,0,0,0,0,0,0,0,0,0,0,0,0,0,0,0,0,0,0,0,0,0,0,0,0,0,0,0,0,0,0,0,0,0,0,0,0,0,0,0,0,0,0,0,0,0,0,0,0,0,0,0,0,0,0,0,0,0,0,0,0,0,0,0,0,0,0,0,0,0,0,0,0,0,0,];

prohibides = [{0,},
{8,9,0,},
{16,17,18,0,},
{18,19,20,15,16,17,},
{9,1,0,},
{0,},
{10,11,12,0,},
{16,17,18,0,},
{0,},
{17,18,19,0,},
{0,},
{16,17,0,},
{8,9,0,},
{16,17,18,0,},
{0,},
{9,10,11,0,},
{0,},
{16,17,18,0,},
{0,},
{17,18,19,0,},
{0,},
{1,2,3,4,5,},
{0,},
{0,},
{0,},
{16,17,18,0,},
{10,11,12,0,},
{0,},
{0,},
{10,11,12,0,},
{9,10,11,0,},
{18,19,20,0,},
{0,},
{10,11,12,9,},
{0,},
{0,},
{0,},
{0,},
{0,},
{9,1,0,},
{9,10,11,0,},
{0,},
{17,18,19,0,},
{0,},
{0,},
{18,19,20,21,22,},
{0,},
{0,},
{6,7,8,},
{9,1,0,},
{0,},
{0,},
{18,19,20,0,},
{0,},
{0,},
];